% seed = 0

mint = 38;
% maxt = 86;

nActs = 32;
dur = [0,1,3,5,1,3,6,2,3,3,2,3,1,5,1,3,2,5,4,3,2,2,3,5,4,2,3,5,2,1,1,0];

nSkills = 9;
sreq = [| 0,0,0,0,0,0,0,0,0,
	| 0,0,1,1,0,1,0,1,0,
	| 1,0,0,1,0,1,0,0,0,
	| 0,0,0,0,1,0,0,1,0,
	| 0,0,1,0,0,0,0,1,1,
	| 0,0,3,0,1,0,0,0,0,
	| 0,0,0,0,0,0,0,1,0,
	| 0,0,0,0,0,0,0,1,0,
	| 0,0,2,0,0,0,0,0,0,
	| 0,0,1,0,0,1,0,0,0,
	| 0,0,2,0,0,0,0,0,0,
	| 0,0,0,0,1,0,0,0,0,
	| 0,0,0,0,0,0,0,1,0,
	| 0,1,0,0,2,0,0,1,0,
	| 0,0,1,0,1,0,1,1,0,
	| 0,0,0,0,0,1,0,0,0,
	| 0,0,1,0,0,2,0,1,0,
	| 0,0,0,1,1,1,0,1,0,
	| 0,0,0,0,1,1,0,0,0,
	| 0,0,1,0,0,0,1,0,0,
	| 0,1,0,0,1,0,0,0,0,
	| 0,0,2,1,0,0,0,0,0,
	| 0,0,0,0,1,0,0,1,0,
	| 0,0,1,0,0,2,0,0,0,
	| 0,0,1,0,1,0,1,1,0,
	| 0,0,1,0,0,1,0,0,0,
	| 0,0,2,0,0,1,0,0,0,
	| 0,0,0,0,1,1,0,1,0,
	| 0,0,1,0,0,0,0,0,0,
	| 0,0,1,0,0,0,0,0,0,
	| 0,1,0,0,0,1,0,1,0,
	| 0,0,0,0,0,0,0,0,0, |];

% SumOfsreq = 74;

nResources = 12;
mastery = [| false,false,false,true,true,true,false,false,false,
	| false,false,true,false,false,false,false,false,false,
	| false,false,false,false,true,true,false,false,false,
	| false,false,false,true,true,true,false,false,false,
	| false,true,true,false,true,true,false,false,false,
	| false,false,true,false,false,true,false,false,false,
	| false,false,true,false,false,false,false,false,false,
	| false,false,false,false,true,true,false,false,true,
	| false,false,false,false,false,false,true,true,true,
	| false,false,false,false,false,false,false,true,true,
	| true,true,true,false,false,false,false,false,false,
	| false,false,false,false,false,false,false,true,true, |];

nPrecs = 48;
pred = [1,1,1,2,3,4,5,5,5,6,7,7,7,8,8,9,9,10,10,11,11,12,12,13,13,14,14,15,16,16,17,18,18,18,19,20,21,22,23,24,24,25,26,27,28,29,30,31];
succ = [2,3,4,6,19,5,10,11,7,23,9,12,8,18,13,14,16,26,13,17,29,27,20,21,15,18,15,25,28,31,18,30,22,24,28,28,29,25,29,25,26,27,27,31,30,32,32,32];

nUnrels = 259;
unpred = [2,2,2,2,2,2,2,2,2,2,2,2,2,2,2,2,2,2,2,2,2,2,2,2,2,2,3,3,3,3,3,3,3,3,3,3,3,3,3,3,3,3,3,3,3,3,3,3,3,3,3,4,4,4,5,5,5,6,6,6,6,6,6,6,6,6,6,6,6,6,6,6,6,6,6,6,6,6,6,6,7,7,7,7,7,8,8,8,8,8,8,8,8,8,8,8,9,9,9,9,9,9,9,9,9,9,10,10,10,10,10,10,10,10,10,10,10,10,10,11,11,11,11,11,11,11,11,11,11,12,12,12,12,12,12,12,12,12,12,12,12,12,12,13,13,13,13,13,13,13,13,13,13,13,13,14,14,14,14,14,14,14,14,15,15,15,15,15,15,15,15,15,15,15,15,15,16,16,16,16,16,16,16,16,16,16,16,16,17,17,17,17,17,17,18,18,18,18,18,18,19,19,19,19,19,19,19,19,19,19,20,20,20,20,20,20,20,20,20,21,21,21,21,21,21,21,21,21,22,22,22,22,22,22,23,23,23,23,23,23,23,24,24,24,25,25,25,25,26,26,26,27,27,27,28,28,29,29,30];
unsucc = [3,4,5,7,8,9,10,11,12,13,14,15,16,17,18,19,20,21,22,24,25,26,27,28,30,31,4,5,6,7,8,9,10,11,12,13,14,15,16,17,18,20,21,22,23,24,25,26,27,29,31,6,19,23,6,19,23,7,8,9,10,11,12,13,14,15,16,17,18,19,20,21,22,24,25,26,27,28,30,31,10,11,17,19,23,9,10,11,12,14,16,17,19,20,23,28,10,11,12,13,17,19,20,21,23,29,11,12,14,16,17,18,19,20,22,23,24,28,30,12,13,14,15,16,19,20,21,23,28,13,14,15,16,17,18,19,21,22,23,24,25,26,29,14,16,17,18,19,20,22,23,24,26,28,30,16,17,19,20,21,23,28,29,16,17,18,19,20,21,22,23,24,26,28,29,30,17,18,19,20,21,22,23,24,25,26,27,29,19,20,21,23,28,29,19,20,21,23,28,29,20,21,22,23,24,25,26,27,29,31,21,22,23,24,25,26,27,29,31,22,23,24,25,26,27,28,30,31,23,24,26,28,29,30,24,25,26,27,28,30,31,28,29,30,26,28,29,30,28,29,30,28,29,30,29,31,30,31,31];

USEFUL_RES = [{},
	{1,2,3,4,5,6,7,8,9,10,11,12},
	{1,3,4,5,6,8,11},
	{1,3,4,5,8,9,10,12},
	{2,5,6,7,8,9,10,11,12},
	{1,2,3,4,5,6,7,8,11},
	{9,10,12},
	{9,10,12},
	{2,5,6,7,11},
	{1,2,3,4,5,6,7,8,11},
	{2,5,6,7,11},
	{1,3,4,5,8},
	{9,10,12},
	{1,3,4,5,8,9,10,11,12},
	{1,2,3,4,5,6,7,8,9,10,11,12},
	{1,3,4,5,6,8},
	{1,2,3,4,5,6,7,8,9,10,11,12},
	{1,3,4,5,6,8,9,10,12},
	{1,3,4,5,6,8},
	{2,5,6,7,9,11},
	{1,3,4,5,8,11},
	{1,2,4,5,6,7,11},
	{1,3,4,5,8,9,10,12},
	{1,2,3,4,5,6,7,8,11},
	{1,2,3,4,5,6,7,8,9,10,11,12},
	{1,2,3,4,5,6,7,8,11},
	{1,2,3,4,5,6,7,8,11},
	{1,3,4,5,6,8,9,10,12},
	{2,5,6,7,11},
	{2,5,6,7,11},
	{1,3,4,5,6,8,9,10,11,12},
	{}];

POTENTIAL_ACT = [{2,3,4,6,10,12,14,15,16,17,18,19,21,22,23,24,25,26,27,28,31},
	{2,5,6,9,10,11,15,17,20,22,24,25,26,27,29,30},
	{2,3,4,6,10,12,14,15,16,17,18,19,21,23,24,25,26,27,28,31},
	{2,3,4,6,10,12,14,15,16,17,18,19,21,22,23,24,25,26,27,28,31},
	{2,3,4,5,6,9,10,11,12,14,15,16,17,18,19,20,21,22,23,24,25,26,27,28,29,30,31},
	{2,3,5,6,9,10,11,15,16,17,18,19,20,22,24,25,26,27,28,29,30,31},
	{2,5,6,9,10,11,15,17,20,22,24,25,26,27,29,30},
	{2,3,4,5,6,10,12,14,15,16,17,18,19,21,23,24,25,26,27,28,31},
	{2,4,5,7,8,13,14,15,17,18,20,23,25,28,31},
	{2,4,5,7,8,13,14,15,17,18,23,25,28,31},
	{2,3,5,6,9,10,11,14,15,17,20,21,22,24,25,26,27,29,30,31},
	{2,4,5,7,8,13,14,15,17,18,23,25,28,31}];
